row=8;
column=8;
Board=[|0,4,0,0,7,0,0,0|0,0,4,0,0,0,0,6|0,3,0,0,0,0,0,0|1,0,0,0,0,0,0,7|1,2,4,0,6,2,0,0|0,3,0,0,0,7,0,0|0,0,2,0,0,0,0,7|0,1,0,0,7,0,1,0|];
right = [1,0,1,1,0,2,2,2];
bottom = [4,1,1,2,0,0,1,0];
